minizinc/sudoku_problems2/sudoku_p63.dzn
%
% sudoku_p63.dzn
% See http://www.hakank.org/minizinc/sudoku_gcc.mzn
% 
% This problem is problem 63 from
% Gecode's sudoku.cpp
% http://www.gecode.org/gecode-doc-latest/sudoku_8cpp-source.html
% 
x = array2d(1..n, 1..n, [   
% http://janko.at/Raetsel/Sudoku/510.a.htm
% 63
  _,  _,  2,  _,  _, 13, 10,  6,  _,  3,  8,  _,  1,  4,  _,  _,
  _,  _,  _,  5,  _, 15,  _,  _,  2,  _,  _,  _,  _,  _,  _,  _,
  6,  _,  8,  _,  2,  _, 16,  _,  _,  _,  _,  _,  7, 10,  _, 11,
 10,  _, 15,  _,  _,  _,  _,  _,  6,  5,  _, 16,  _,  _, 13,  _,
  _,  _,  _,  6,  _,  8, 14,  _,  5,  2,  _,  _,  _, 11,  _,  _,
  7,  _,  _,  _,  _,  2,  _, 15,  _, 16,  3,  9,  _,  _,  8, 14,
  8,  _,  _,  3,  6,  7,  9,  _,  _,  4,  _, 12,  _,  1,  _, 16,
  _, 11,  _, 14, 16,  _,  _,  1,  8,  _, 10,  _,  _,  _,  _,  7,
  1,  _,  _,  _,  _, 10,  _,  8, 12,  _,  _, 15, 16,  _,  3,  _,
 14,  _, 10,  _,  1,  _,  3,  _,  _, 13,  4,  2, 11,  _,  _,  5,
  9,  7,  _,  _, 12, 16,  6,  _,  1,  _, 11,  _,  _,  _,  _,  4,
  _,  _,  3,  _,  _,  _,  2, 13,  _, 14,  6,  _, 10,  _,  _,  _,
  _, 12,  _,  _, 11,  _,  7,  4,  _,  _,  _,  _,  _,  5,  _, 10,
 11,  _,  6,  8,  _,  _,  _,  _,  _, 12,  _,  7,  _, 13,  _, 15,
  _,  _,  _,  _,  _,  _,  _, 10,  _,  _,  1,  _,  2,  _,  _,  _,
  _,  _,  4, 10,  _, 12,  8,  _, 14,  6, 16,  _,  _,  7,  _,  _
]);

n = 16;


